
#(C) 2025 by FIZ Karlsruhe - Leibniz Institute for Information Infrastructure.  All rights reserved.
data_73937-ICSD
_database_code_ICSD 73937
_audit_creation_date 1995-01-10
_chemical_name_common 'Dibarium diindium oxide'
_chemical_formula_structural 'Ba2 In2 O5'
_chemical_formula_sum 'Ba2 In2 O5'
_chemical_name_structure_type Ca2AlFeO5
_exptl_crystal_density_diffrn 6.39
_citation_title

;
Phases in the system Ba2M2-xCuxO4+d, M=In, Sc: structure and oxygen
stoichiometry
;
loop_
_citation_id
_citation_journal_full
_citation_year
_citation_journal_volume
_citation_page_first
_citation_page_last
_citation_journal_id_ASTM
primary 'Journal of Solid State Chemistry' 1993 107 134 148 JSSCBI
loop_
_citation_author_citation_id
_citation_author_name
primary 'Gregory, D.H.'
primary 'Weller, M.T.'
_cell_length_a 6.0956(1)
_cell_length_b 16.7112(3)
_cell_length_c 5.9601(1)
_cell_angle_alpha 90.
_cell_angle_beta 90.
_cell_angle_gamma 90.
_cell_volume 607.12
_cell_formula_units_Z 4
_space_group_name_H-M_alt 'I b m 2'
_space_group_IT_number 46
loop_
_space_group_symop_id
_space_group_symop_operation_xyz
1 '-x, y+1/2, z'
2 'x, -y+1/2, z'
3 '-x, -y, z'
4 'x, y, z'
5 '-x+1/2, y, z+1/2'
6 'x+1/2, -y, z+1/2'
7 '-x+1/2, -y+1/2, z+1/2'
8 'x+1/2, y+1/2, z+1/2'
loop_
_atom_type_symbol
_atom_type_oxidation_number
Ba2+ 2
In3+ 3
O2- -2
loop_
_atom_site_label
_atom_site_type_symbol
_atom_site_symmetry_multiplicity
_atom_site_Wyckoff_symbol
_atom_site_fract_x
_atom_site_fract_y
_atom_site_fract_z
_atom_site_B_iso_or_equiv
_atom_site_occupancy
Ba1 Ba2+ 8 c 0.0146(4) 0.1094(1) 0.5023(5) 1.58(7) 1.
In1 In3+ 4 a 0 0 0 1.56(9) 1.
In2 In3+ 4 b 0.9357(7) 0.25 0.0147(26) 2.82(14) 1.
O1 O2- 8 c 0.3121(36) 0.9904(14) 0.2509(54) 0.56(48) 1.
O2 O2- 8 c 0.0404(30) 0.1423(9) 0.0320(85) 0.56(48) 1.
O3 O2- 4 b 0.8760(55) 0.25 0.6245(71) 0.56(48) 1.
#End of TTdata_73937-ICSD