
#(C) 2025 by FIZ Karlsruhe - Leibniz Institute for Information Infrastructure.  All rights reserved.
data_24377-ICSD
_database_code_ICSD 24377
_audit_creation_date 1981-12-31
_audit_update_record 2003-04-01
_chemical_name_common 'Cesium hydrogensulfate(VI)'
_chemical_formula_structural 'Cs (H S O4)'
_chemical_formula_sum 'H1 Cs1 O4 S1'
_exptl_crystal_density_diffrn 3.35
_citation_title 'Structure of cesium hydrogensulfate'
loop_
_citation_id
_citation_journal_full
_citation_year
_citation_journal_volume
_citation_page_first
_citation_page_last
_citation_journal_id_ASTM
primary

;
Acta Crystallographica, Section B: Structural Crystallography and Crystal
Chemistry
; 1981 37 1908 1909 ACBCAR
loop_
_citation_author_citation_id
_citation_author_name
primary 'Itoh, K.'
primary 'Ozaki, T.'
primary 'Nakamura, E.'
_cell_length_a 7.3039(9)
_cell_length_b 5.8099(10)
_cell_length_c 5.4908(8)
_cell_angle_alpha 90.
_cell_angle_beta 101.51(1)
_cell_angle_gamma 90.
_cell_volume 228.32
_cell_formula_units_Z 2
_space_group_name_H-M_alt 'P 1 21/m 1'
_space_group_IT_number 11
loop_
_space_group_symop_id
_space_group_symop_operation_xyz
1 'x, -y+1/2, z'
2 '-x, -y, -z'
3 '-x, y+1/2, -z'
4 'x, y, z'
loop_
_atom_type_symbol
_atom_type_oxidation_number
Cs1+ 1
S6+ 6
O2- -2
H1+ 1
loop_
_atom_site_label
_atom_site_type_symbol
_atom_site_symmetry_multiplicity
_atom_site_Wyckoff_symbol
_atom_site_fract_x
_atom_site_fract_y
_atom_site_fract_z
_atom_site_B_iso_or_equiv
_atom_site_occupancy
Cs1 Cs1+ 2 e 0.28805(4) 0.25 0.98352(6) . 1.
S1 S6+ 2 e 0.7543(2) 0.25 0.5490(2) . 1.
O1 O2- 2 e 0.6990(7) 0.25 0.2814(8) . 1.
O2 O2- 2 e 0.6076(6) 0.25 0.6847(10) . 1.
O3 O2- 4 f 0.8759(5) 0.0434(6) 0.6301(6) . 1.
H1 H1+ 2 c 0 0 0.5 6.3 1.
loop_
_atom_site_aniso_label
_atom_site_aniso_type_symbol
_atom_site_aniso_U_11
_atom_site_aniso_U_22
_atom_site_aniso_U_33
_atom_site_aniso_U_12
_atom_site_aniso_U_13
_atom_site_aniso_U_23
Cs1 Cs1+ 0.0250(1) 0.0279(1) 0.0283(1) 0 0.0072(1) 0
S1 S6+ 0.0180(4) 0.0270(5) 0.0210(4) 0 0.0057(3) 0
O1 O2- 0.037(2) 0.042(2) 0.025(2) 0 0.001(1) 0
O2 O2- 0.028(2) 0.040(2) 0.051(3) 0 0.023(2) 0
O3 O2- 0.043(2) 0.036(2) 0.041(2) 0.016(1) 0.017(1) 0.014(1)
#End of TTdata_24377-ICSD