
#(C) 2025 by FIZ Karlsruhe - Leibniz Institute for Information Infrastructure.  All rights reserved.
data_173738-ICSD
_database_code_ICSD 173738
_audit_creation_date 2009-08-01
_audit_update_record 2022-02-01
_chemical_name_common 'Triammonium hydrogen bis(sulfate(VI))'
_chemical_formula_structural '(N H4)3 H (S O4)2'
_chemical_formula_sum 'H13 N3 O8 S2'
_chemical_name_structure_type Rb3H(SeO4)2
_exptl_crystal_density_diffrn 1.82
_diffrn_ambient_temperature 293.
_citation_title

;
Dynamic proton disorder and the II-I structural phase transition in (N H4)3 H
(S O4)2
;
loop_
_citation_id
_citation_journal_full
_citation_year
_citation_journal_volume
_citation_page_first
_citation_page_last
_citation_journal_id_ASTM
primary 'Acta Crystallographica, Section B: Structural Science' 2009 65 36 44
ASBSDK
loop_
_citation_author_citation_id
_citation_author_name
primary 'Sohn Yoo Jung'
primary 'Loose, A.'
primary 'Merz, M.'
primary 'Sparta, K.'
primary 'Klapper, H.'
primary 'Heger, G.'
_cell_length_a 15.429(8)
_cell_length_b 5.861(3)
_cell_length_c 10.167(5)
_cell_angle_alpha 90
_cell_angle_beta 101.83(5)
_cell_angle_gamma 90
_cell_volume 899.87
_cell_formula_units_Z 4
_space_group_name_H-M_alt 'C 1 2/c 1'
_space_group_IT_number 15
loop_
_space_group_symop_id
_space_group_symop_operation_xyz
1 'x, -y, z+1/2'
2 '-x, -y, -z'
3 '-x, y, -z+1/2'
4 'x, y, z'
5 'x+1/2, -y+1/2, z+1/2'
6 '-x+1/2, -y+1/2, -z'
7 '-x+1/2, y+1/2, -z+1/2'
8 'x+1/2, y+1/2, z'
loop_
_atom_type_symbol
_atom_type_oxidation_number
S6+ 6
N3- -3
O2- -2
H1+ 1
loop_
_atom_site_label
_atom_site_type_symbol
_atom_site_symmetry_multiplicity
_atom_site_Wyckoff_symbol
_atom_site_fract_x
_atom_site_fract_y
_atom_site_fract_z
_atom_site_U_iso_or_equiv
_atom_site_occupancy
S1 S6+ 8 f 0.1150(3) 0.2175(10) 0.4630(6) 0.0237(10) 1
N1 N3- 4 e 0.5 0.2298(5) 0.25 0.0296(6) 1
N2 N3- 8 f 0.19904(14) 0.2766(4) 0.1531(2) 0.0343(5) 1
O1 O2- 8 f 0.01474(18) 0.1836(6) 0.4428(4) 0.0386(8) 1
O2 O2- 8 f 0.1504(2) 0.2223(7) 0.6049(3) 0.0393(8) 1
O3 O2- 8 f 0.1286(2) 0.4326(6) 0.3982(4) 0.0416(8) 1
O4 O2- 8 f 0.1489(2) 0.0278(6) 0.3979(4) 0.0427(9) 1
H1 H1+ 4 a 0 0 0 0.079(5) 1
H2 H1+ 8 f 0.4648(7) 0.131(2) 0.1834(11) 0.105(4) 1
H3 H1+ 8 f 0.4569(8) 0.310(3) 0.2747(19) 0.171(8) 1
H4 H1+ 8 f 0.2601(6) 0.310(2) 0.1698(14) 0.117(5) 1
H5 H1+ 8 f 0.1695(10) 0.387(3) 0.0978(16) 0.142(6) 1
H6 H1+ 8 f 0.1900(7) 0.1303(17) 0.1146(12) 0.100(4) 1
H7 H1+ 8 f 0.1772(8) 0.283(3) 0.2313(10) 0.127(5) 1
loop_
_atom_site_aniso_label
_atom_site_aniso_type_symbol
_atom_site_aniso_U_11
_atom_site_aniso_U_22
_atom_site_aniso_U_33
_atom_site_aniso_U_12
_atom_site_aniso_U_13
_atom_site_aniso_U_23
S1 S6+ 0.022(2) 0.025(2) 0.024(3) 0.0034(19) 0.004(2) -0.002(2)
N1 N3- 0.0288(11) 0.0327(14) 0.0260(15) 0 0.0025(12) 0
N2 N3- 0.0388(11) 0.0303(10) 0.0332(12) -0.0074(9) 0.0057(9) -0.0008(10)
O1 O2- 0.0182(11) 0.0463(19) 0.050(2) 0.0017(12) 0.0032(12) -0.0020(16)
O2 O2- 0.0345(13) 0.057(2) 0.0240(14) -0.0075(14) 0.0008(13) 0.0002(15)
O3 O2- 0.0415(16) 0.0324(15) 0.049(2) 0.0023(13) 0.0048(14) 0.0176(15)
O4 O2- 0.0364(14) 0.0354(16) 0.060(2) -0.0002(13) 0.0184(16) -0.0181(15)
H1 H1+ 0.026(3) 0.143(13) 0.064(7) -0.002(5) 0.001(4) 0.059(8)
H2 H1+ 0.087(6) 0.128(9) 0.085(7) 0.002(6) -0.015(5) -0.043(7)
H3 H1+ 0.089(7) 0.188(15) 0.222(17) 0.064(9) 0.002(9) -0.105(14)
H4 H1+ 0.058(5) 0.117(9) 0.172(11) -0.022(5) 0.014(6) -0.079(9)
H5 H1+ 0.135(10) 0.136(11) 0.157(13) 0.055(9) 0.035(9) 0.089(11)
H6 H1+ 0.094(6) 0.067(5) 0.130(10) -0.021(5) 0.001(6) -0.054(6)
H7 H1+ 0.130(9) 0.195(15) 0.069(6) -0.037(10) 0.050(6) -0.008(8)
#End of TTdata_173738-ICSD